68 69 59 61 16 54 44 41 7 38 73 43 23 62 64 20 8 71 47 42 4 75 15 55 57 26 51 5 52 58 72 37 29 22 60 25 1 66 65 32 30 50 49 11 46 13 21 48 74 28 14 19 35 24 6 36 10 3 53 12 27 70 39 34 31 40 63 9 33 67 76 45 18 17 2 56 0 